
Gurobi 11.0.1 (win64) logging started Thu Mar 14 08:01:51 2024

Set parameter LogFile to value "C:\Projetos\Job_Rotation_Algorithms\Outputs\GurobiLogs\gurobi_log-output-22_ros-c33-BorbaRittModel-NoExtraConstraint-2.log"
Gurobi Optimizer version 11.0.1 build v11.0.1rc0 (win64 - Windows 10.0 (19045.2))

CPU model: 11th Gen Intel(R) Core(TM) i7-1165G7 @ 2.80GHz, instruction set [SSE2|AVX|AVX2|AVX512]
Thread count: 4 physical cores, 8 logical processors, using up to 1 threads


Gurobi 11.0.1 (win64) logging started Fri Mar 15 00:39:18 2024

Set parameter LogFile to value "C:\Projetos\Job_Rotation_Algorithms\Outputs\GurobiLogs\gurobi_log-output-22_ros-c33-BorbaRittModel-NoExtraConstraint-2.log"
Gurobi Optimizer version 11.0.1 build v11.0.1rc0 (win64 - Windows 10.0 (19045.2))

CPU model: 11th Gen Intel(R) Core(TM) i7-1165G7 @ 2.80GHz, instruction set [SSE2|AVX|AVX2|AVX512]
Thread count: 4 physical cores, 8 logical processors, using up to 1 threads


Gurobi 11.0.1 (win64) logging started Sat Mar 16 12:25:48 2024

Set parameter LogFile to value "C:\Projetos\Job_Rotation_Algorithms\Outputs\GurobiLogs\gurobi_log-output-22_ros-c33-BorbaRittModel-NoExtraConstraint-2.log"
Gurobi Optimizer version 11.0.1 build v11.0.1rc0 (win64 - Windows 10.0 (19045.2))

CPU model: 11th Gen Intel(R) Core(TM) i7-1165G7 @ 2.80GHz, instruction set [SSE2|AVX|AVX2|AVX512]
Thread count: 4 physical cores, 8 logical processors, using up to 1 threads


Gurobi 11.0.1 (win64) logging started Sat Mar 16 22:23:31 2024

Set parameter LogFile to value "C:\Projetos\Job_Rotation_Algorithms\Outputs\GurobiLogs\gurobi_log-output-22_ros-c33-BorbaRittModel-NoExtraConstraint-2.log"
Gurobi Optimizer version 11.0.1 build v11.0.1rc0 (win64 - Windows 10.0 (19045.2))

CPU model: 11th Gen Intel(R) Core(TM) i7-1165G7 @ 2.80GHz, instruction set [SSE2|AVX|AVX2|AVX512]
Thread count: 4 physical cores, 8 logical processors, using up to 1 threads

WLS license 901039 - registered to Bitka Analytics
Optimize a model with 850 rows, 299 columns and 2735 nonzeros
Model fingerprint: 0x7e21f13c
Variable types: 2 continuous, 297 integer (297 binary)
Coefficient statistics:
  Matrix range     [1e+00, 3e+01]
  Objective range  [1e+00, 1e+00]
  Bounds range     [1e+00, 7e+01]
  RHS range        [1e+00, 7e+01]
Presolve removed 1 rows and 1 columns
Presolve time: 0.00s
Presolved: 849 rows, 298 columns, 2733 nonzeros
Variable types: 0 continuous, 298 integer (297 binary)

Root relaxation: objective 5.000000e+01, 409 iterations, 0.02 seconds (0.01 work units)

    Nodes    |    Current Node    |     Objective Bounds      |     Work
 Expl Unexpl |  Obj  Depth IntInf | Incumbent    BestBd   Gap | It/Node Time

     0     0   50.00000    0   82          -   50.00000      -     -    0s
     0     0   50.00000    0   90          -   50.00000      -     -    0s
     0     0   50.00000    0   85          -   50.00000      -     -    0s
     0     0   50.00000    0   70          -   50.00000      -     -    0s
     0     0   50.00000    0   96          -   50.00000      -     -    0s
     0     0   50.00000    0   65          -   50.00000      -     -    0s
     0     0   50.00000    0   72          -   50.00000      -     -    0s
     0     0   50.00000    0   76          -   50.00000      -     -    0s
     0     0   50.00000    0   80          -   50.00000      -     -    0s
     0     0   50.00000    0   80          -   50.00000      -     -    0s
     0     0   50.00000    0   93          -   50.00000      -     -    0s
     0     0   50.00000    0   63          -   50.00000      -     -    0s
     0     2   50.00000    0   63          -   50.00000      -     -    0s
* 1232   336              39      44.0000000   50.00000  13.6%  20.1    2s
H 1285   309                      45.0000000   50.00000  11.1%  22.4    3s
  2247   112   48.10486   29   75   45.00000   50.00000  11.1%  46.0    5s
H 2568    66                      49.0000000   50.00000  2.04%  50.7    6s
  4014   101 infeasible   33        49.00000   50.00000  2.04%  63.7   10s
  5240    49   50.00000   34   65   49.00000   50.00000  2.04%  72.2   15s

Cutting planes:
  Zero half: 2
  RLT: 4

Explored 5428 nodes (431301 simplex iterations) in 15.82 seconds (16.29 work units)
Thread count was 1 (of 8 available processors)

Solution count 3: 49 45 44 

Optimal solution found (tolerance 1.00e-03)
Best objective 4.900000000000e+01, best bound 4.900000000000e+01, gap 0.0000%
